23
11
16 5 11 10 22 8 13 15 7 18 21 3 4 19 0 20 17 12 2 9 6 1 14
9 19 22 8 14 10 17 21 0 6 3 2 5 7 20 13
21 3 15 13 19 6 4 7 1 14 5 8
20 9 10 7 17 3 12
2 11 4 17
21 22 0 6 19 13 20 14 11 15 16 2 9 3 4 1 10 12 17 5 8 18 7
3 21 17 15 8 2 18 0 7 22 5 14 12 13 9 11 6 10
10 7 18 20 5 2 15 13 12 16 0 8 1 9 6 4 22 21 11 14 17 19
18 13 22 9 10 20 3 4 17 5 21 1 8 7 0 14 15 16 11
8 6 14 3 10 9 13 11
16 1 2 9 12 14 0 6 8 15
